NAME : ts225Preorder.69.tour
COMMENT : Length = 69
COMMENT : Found by LKH [Keld Helsgaun] Sun May  3 22:30:40 2020
TYPE : TOUR
DIMENSION : 225
TOUR_SECTION
1
2
3
4
5
6
7
131
133
132
8
9
10
11
12
13
15
16
14
136
137
138
139
140
38
39
40
41
42
43
44
145
144
143
142
141
17
18
19
20
21
22
23
24
25
146
147
148
149
150
50
171
49
48
47
46
45
166
167
168
169
170
68
67
66
65
64
63
165
164
163
162
161
37
36
35
34
33
32
135
134
30
29
31
156
157
158
159
160
58
59
60
61
62
186
187
188
189
190
89
90
91
92
93
94
216
217
96
95
195
194
193
192
191
69
70
71
72
73
74
175
173
172
174
75
196
197
198
199
200
100
98
97
99
221
222
223
224
225
125
124
123
122
121
120
119
220
218
219
118
117
116
115
114
113
111
109
110
112
215
214
213
212
211
88
87
86
85
84
83
82
206
207
208
209
210
108
107
106
105
104
103
102
101
205
204
203
202
201
76
180
77
78
79
80
81
185
184
183
182
181
57
56
55
54
53
52
177
179
178
176
51
155
154
153
152
151
26
28
27
130
129
128
127
126
-1
EOF
